p wcnf 140 1500
6 -135 -139 0
9 -135 -136 0
9 -134 -136 0
5 -134 140 0
9 -133 135 0
7 -130 -137 0
6 -130 -136 0
2 -130 136 0
8 -127 128 0
2 -126 129 0
8 -126 132 0
4 -125 -135 0
5 -125 130 0
4 -125 133 0
2 -124 -126 0
3 -124 137 0
8 -121 -139 0
2 -121 -130 0
5 -121 124 0
7 -120 137 0
2 -119 -133 0
8 -119 -129 0
4 -119 123 0
3 -119 128 0
10 -118 -140 0
3 -118 -127 0
2 -118 123 0
5 -117 -133 0
5 -116 126 0
9 -115 -139 0
1 -115 -138 0
10 -115 128 0
8 -114 118 0
9 -114 128 0
5 -114 132 0
7 -113 -133 0
6 -113 -128 0
10 -113 -116 0
8 -113 123 0
4 -112 -140 0
2 -112 -119 0
5 -112 -115 0
7 -112 138 0
7 -111 -134 0
8 -111 117 0
8 -110 -136 0
8 -110 -116 0
6 -110 137 0
9 -109 127 0
3 -109 129 0
3 -108 -121 0
1 -108 117 0
1 -108 118 0
6 -108 130 0
3 -107 -138 0
1 -107 -117 0
8 -106 -130 0
4 -106 -121 0
5 -106 110 0
3 -106 113 0
3 -105 -124 0
5 -105 -108 0
3 -105 133 0
1 -104 -110 0
4 -103 -136 0
7 -103 -104 0
7 -102 -132 0
9 -102 -115 0
7 -102 -105 0
5 -101 -133 0
4 -101 116 0
8 -101 128 0
9 -100 -117 0
10 -100 115 0
5 -99 -121 0
7 -99 130 0
8 -99 135 0
3 -98 -118 0
3 -98 127 0
7 -98 139 0
5 -97 114 0
5 -97 121 0
7 -97 135 0
5 -96 -140 0
1 -96 -121 0
9 -96 -118 0
6 -96 116 0
8 -96 118 0
4 -96 137 0
10 -95 -136 0
2 -95 -134 0
6 -95 -132 0
5 -95 -126 0
4 -95 -114 0
6 -94 95 0
8 -94 139 0
10 -93 -122 0
4 -93 -107 0
7 -93 -101 0
6 -93 -100 0
7 -93 107 0
10 -93 111 0
4 -92 107 0
6 -91 107 0
10 -91 123 0
7 -90 -135 0
3 -90 -114 0
7 -90 -99 0
9 -90 121 0
5 -89 -121 0
4 -89 -102 0
4 -89 -101 0
8 -89 98 0
10 -89 101 0
9 -89 124 0
8 -89 133 0
9 -89 139 0
4 -88 -133 0
7 -88 -124 0
3 -87 -134 0
4 -87 -118 0
8 -87 -99 0
8 -86 -134 0
8 -86 105 0
2 -86 130 0
4 -85 -136 0
6 -85 -134 0
1 -85 -119 0
7 -85 89 0
3 -85 115 0
6 -84 -139 0
4 -84 126 0
3 -83 -129 0
9 -83 101 0
9 -83 111 0
3 -83 136 0
7 -82 -138 0
2 -82 -127 0
9 -82 -120 0
6 -82 -89 0
6 -82 84 0
3 -82 85 0
10 -82 90 0
4 -82 123 0
3 -82 140 0
8 -81 -113 0
2 -81 109 0
2 -81 119 0
3 -81 123 0
8 -80 -101 0
4 -80 -93 0
5 -80 -83 0
6 -80 131 0
1 -79 -129 0
3 -79 -109 0
7 -79 115 0
4 -78 -102 0
8 -77 109 0
7 -77 118 0
10 -77 121 0
1 -77 133 0
4 -76 -130 0
4 -76 -125 0
3 -76 -106 0
3 -76 95 0
3 -76 128 0
5 -75 -136 0
9 -75 -111 0
4 -75 -83 0
4 -74 -112 0
5 -74 -107 0
9 -74 -90 0
6 -74 97 0
5 -74 101 0
3 -73 -130 0
8 -73 -127 0
3 -73 -122 0
4 -73 -119 0
9 -73 -107 0
5 -73 -99 0
2 -73 86 0
3 -72 -131 0
9 -72 -87 0
8 -72 -75 0
3 -72 84 0
2 -72 91 0
4 -72 120 0
6 -71 -137 0
9 -71 -117 0
2 -71 -105 0
6 -71 112 0
9 -70 -123 0
4 -70 -121 0
9 -70 -109 0
3 -70 81 0
6 -70 87 0
2 -69 -93 0
7 -69 84 0
5 -69 121 0
5 -68 -113 0
1 -68 -82 0
9 -68 93 0
4 -68 100 0
7 -68 104 0
4 -68 135 0
6 -67 -120 0
5 -67 -113 0
6 -67 -92 0
9 -67 77 0
4 -66 -110 0
10 -66 -102 0
2 -66 -78 0
6 -66 80 0
9 -66 108 0
8 -65 -121 0
8 -65 -117 0
1 -65 -74 0
3 -65 110 0
4 -65 121 0
9 -65 128 0
3 -64 -116 0
8 -64 -100 0
9 -64 82 0
6 -64 93 0
7 -63 -123 0
2 -63 88 0
3 -63 111 0
8 -63 117 0
8 -63 130 0
7 -62 -139 0
3 -62 -132 0
8 -62 -122 0
6 -62 -119 0
6 -62 -98 0
5 -61 -136 0
9 -61 -134 0
2 -61 -122 0
9 -61 -101 0
5 -61 -78 0
1 -61 124 0
4 -60 92 0
5 -60 97 0
2 -60 112 0
8 -59 -127 0
4 -59 -97 0
9 -59 60 0
6 -59 100 0
4 -59 112 0
2 -59 132 0
8 -58 -134 0
4 -58 -115 0
4 -58 -97 0
7 -58 -77 0
2 -58 -64 0
9 -57 -140 0
4 -57 -103 0
3 -57 -78 0
1 -57 -62 0
2 -57 60 0
10 -57 63 0
7 -57 82 0
4 -57 87 0
8 -57 101 0
3 -56 -120 0
9 -56 -101 0
3 -56 -70 0
3 -56 133 0
10 -55 -113 0
2 -55 -105 0
7 -55 -66 0
1 -55 80 0
5 -55 125 0
2 -55 127 0
2 -54 -124 0
3 -54 106 0
6 -54 116 0
10 -54 127 0
8 -53 -73 0
9 -53 91 0
1 -53 106 0
7 -53 107 0
2 -53 111 0
4 -53 113 0
3 -53 117 0
4 -53 128 0
3 -53 140 0
7 -52 -111 0
5 -52 -85 0
3 -52 -66 0
8 -52 -63 0
5 -52 63 0
10 -52 70 0
2 -52 90 0
3 -52 116 0
3 -52 138 0
10 -51 -133 0
5 -51 -123 0
4 -51 -121 0
9 -51 -89 0
7 -51 53 0
2 -51 56 0
9 -51 73 0
1 -51 77 0
3 -51 111 0
1 -51 138 0
4 -50 -110 0
7 -50 -99 0
1 -50 -77 0
2 -50 -61 0
6 -50 -53 0
2 -50 67 0
7 -50 135 0
7 -49 -136 0
5 -49 -130 0
10 -49 -97 0
1 -49 61 0
7 -49 75 0
6 -49 109 0
6 -48 -130 0
9 -48 -112 0
4 -48 -81 0
10 -48 59 0
9 -48 61 0
4 -48 71 0
3 -48 79 0
2 -48 86 0
4 -48 114 0
7 -48 138 0
5 -47 -114 0
3 -47 50 0
4 -47 66 0
5 -47 122 0
3 -46 85 0
4 -46 126 0
7 -45 -134 0
3 -45 -91 0
7 -45 -51 0
5 -45 63 0
3 -45 70 0
7 -45 92 0
1 -45 93 0
4 -45 112 0
5 -45 129 0
7 -45 131 0
7 -44 -128 0
5 -44 -126 0
8 -44 -99 0
4 -44 -95 0
10 -44 -93 0
3 -44 -90 0
3 -44 -53 0
4 -44 70 0
3 -44 109 0
2 -43 -139 0
7 -43 -122 0
5 -43 -117 0
2 -43 -109 0
10 -43 -105 0
2 -43 -66 0
6 -43 -53 0
3 -43 -46 0
4 -43 44 0
2 -43 49 0
5 -43 56 0
7 -43 58 0
8 -43 63 0
7 -43 92 0
4 -43 103 0
3 -43 134 0
9 -43 139 0
1 -42 -111 0
3 -42 -105 0
2 -42 -99 0
5 -42 -73 0
9 -42 54 0
9 -42 78 0
9 -42 103 0
7 -41 -138 0
3 -41 -90 0
9 -41 -80 0
9 -41 52 0
5 -41 105 0
2 -41 113 0
2 -41 122 0
6 -39 -106 0
8 -39 -67 0
5 -39 69 0
7 -39 94 0
8 -39 100 0
6 -38 -136 0
3 -38 -117 0
1 -38 -92 0
9 -38 -91 0
4 -38 -88 0
5 -38 -50 0
6 -38 48 0
2 -38 65 0
2 -38 122 0
9 -37 -139 0
4 -37 -92 0
9 -37 -48 0
10 -37 -47 0
6 -37 63 0
2 -37 73 0
5 -37 128 0
6 -36 -61 0
9 -36 -40 0
3 -36 -38 0
3 -36 38 0
2 -36 50 0
2 -36 75 0
2 -36 77 0
6 -36 83 0
3 -36 113 0
3 -36 133 0
1 -35 -123 0
1 -35 -111 0
7 -35 -73 0
7 -35 -60 0
8 -35 -41 0
3 -35 39 0
9 -35 68 0
8 -35 89 0
3 -35 97 0
3 -35 122 0
3 -35 125 0
8 -35 132 0
4 -34 -100 0
4 -34 -86 0
7 -34 -65 0
8 -34 -47 0
3 -34 54 0
7 -33 -111 0
4 -33 -67 0
4 -33 60 0
1 -33 85 0
9 -33 99 0
3 -33 104 0
4 -33 107 0
1 -33 110 0
4 -32 -121 0
4 -32 -98 0
2 -32 -88 0
8 -32 -77 0
6 -32 -60 0
4 -32 -49 0
8 -32 -43 0
7 -32 74 0
1 -32 97 0
5 -32 123 0
5 -31 -137 0
3 -31 -136 0
4 -31 -108 0
3 -31 -104 0
5 -31 -80 0
7 -31 -60 0
6 -31 -37 0
3 -31 82 0
10 -30 -115 0
9 -30 -108 0
9 -30 -74 0
8 -30 -61 0
2 -30 -57 0
6 -30 -50 0
1 -30 -49 0
5 -30 -47 0
6 -30 50 0
9 -30 61 0
6 -29 -120 0
8 -29 -104 0
9 -29 -63 0
9 -29 -31 0
3 -29 61 0
1 -29 111 0
7 -29 117 0
8 -28 -105 0
4 -28 -55 0
5 -28 -46 0
5 -28 -32 0
4 -28 33 0
10 -28 43 0
9 -28 52 0
7 -28 78 0
4 -27 -139 0
2 -27 -92 0
2 -27 -31 0
10 -27 55 0
7 -27 70 0
3 -26 -135 0
9 -26 -127 0
6 -26 -119 0
2 -26 -116 0
7 -26 -91 0
7 -26 -82 0
7 -26 -39 0
8 -26 97 0
1 -25 -126 0
3 -25 -85 0
6 -25 -68 0
6 -25 -67 0
2 -25 -64 0
6 -25 -63 0
5 -25 -40 0
3 -25 -38 0
6 -25 28 0
2 -25 41 0
2 -25 58 0
9 -25 111 0
7 -25 137 0
5 -24 -114 0
4 -24 -113 0
6 -24 -112 0
4 -24 -58 0
9 -24 100 0
9 -23 -100 0
5 -23 -97 0
10 -23 -86 0
9 -23 -68 0
2 -23 -66 0
3 -23 -37 0
8 -23 -25 0
7 -23 48 0
5 -23 63 0
5 -23 64 0
4 -23 73 0
2 -23 81 0
3 -23 96 0
4 -22 -137 0
4 -22 -108 0
8 -22 -92 0
9 -22 -83 0
4 -22 -78 0
4 -22 -46 0
5 -22 99 0
7 -22 133 0
9 -21 -122 0
6 -21 -121 0
7 -21 -91 0
8 -21 -90 0
3 -21 -87 0
3 -21 -59 0
2 -21 -52 0
8 -21 -32 0
6 -21 -24 0
10 -21 26 0
7 -21 33 0
2 -21 39 0
10 -21 55 0
6 -21 59 0
3 -21 75 0
3 -21 95 0
4 -21 106 0
9 -20 -114 0
6 -20 -111 0
8 -20 -94 0
3 -20 -73 0
7 -20 -69 0
1 -20 -67 0
6 -20 -36 0
10 -20 36 0
8 -20 42 0
5 -20 70 0
4 -20 97 0
2 -20 105 0
9 -20 133 0
1 -19 -116 0
1 -19 -93 0
5 -19 -90 0
8 -19 -71 0
8 -19 -60 0
7 -19 -53 0
9 -19 -37 0
9 -19 34 0
5 -19 37 0
6 -19 76 0
9 -19 113 0
3 -18 -131 0
6 -18 -126 0
9 -18 -124 0
8 -18 -61 0
8 -18 -37 0
2 -18 46 0
2 -18 85 0
8 -18 115 0
7 -17 -129 0
9 -17 -128 0
10 -17 -111 0
4 -17 -102 0
9 -17 -87 0
6 -17 -65 0
4 -17 -64 0
8 -17 53 0
1 -17 79 0
7 -17 93 0
9 -17 95 0
9 -17 126 0
8 -17 129 0
9 -16 -135 0
4 -16 -105 0
5 -16 -81 0
8 -16 -40 0
1 -16 -22 0
5 -16 -19 0
7 -16 22 0
6 -16 67 0
9 -16 74 0
6 -16 107 0
7 -16 128 0
5 -16 133 0
5 -16 134 0
5 -16 139 0
4 -15 -137 0
6 -15 -126 0
6 -15 -122 0
2 -15 -114 0
3 -15 -68 0
5 -15 32 0
1 -15 51 0
6 -15 60 0
4 -15 68 0
6 -15 105 0
9 -15 131 0
2 -14 -138 0
6 -14 -136 0
6 -14 -118 0
9 -14 -81 0
6 -14 -70 0
4 -14 -51 0
9 -14 -47 0
9 -14 -21 0
8 -14 42 0
6 -14 49 0
9 -14 68 0
2 -14 80 0
3 -14 115 0
5 -13 -140 0
2 -13 -137 0
8 -13 -101 0
2 -13 -89 0
6 -13 -76 0
3 -13 -72 0
6 -13 -36 0
9 -13 -32 0
7 -13 -23 0
2 -13 65 0
9 -13 78 0
9 -13 133 0
6 -13 139 0
10 -12 -139 0
5 -12 -82 0
9 -12 -72 0
6 -12 -51 0
3 -12 -25 0
9 -12 17 0
2 -12 40 0
8 -12 49 0
9 -12 63 0
7 -12 122 0
2 -12 130 0
7 -11 -140 0
6 -11 -58 0
9 -11 84 0
4 -11 86 0
5 -11 98 0
1 -11 103 0
6 -11 119 0
9 -11 135 0
2 -10 -98 0
4 -10 -73 0
2 -10 -64 0
7 -10 -24 0
6 -10 15 0
7 -10 21 0
6 -10 90 0
3 -9 -129 0
8 -9 -71 0
5 -9 -68 0
2 -9 -64 0
4 -9 -61 0
5 -9 -54 0
6 -9 -39 0
3 -9 -31 0
10 -9 -29 0
8 -9 -25 0
2 -9 16 0
2 -9 22 0
6 -9 43 0
1 -9 106 0
8 -9 134 0
7 -8 -139 0
8 -8 -136 0
4 -8 -112 0
6 -8 -71 0
1 -8 -65 0
8 -8 -59 0
6 -8 -9 0
6 -8 21 0
7 -8 74 0
7 -8 135 0
8 -7 -87 0
8 -7 -17 0
4 -7 91 0
4 -7 93 0
5 -7 125 0
8 -7 126 0
6 -6 -127 0
3 -6 -95 0
3 -6 -78 0
7 -6 -70 0
6 -6 24 0
7 -6 32 0
2 -6 50 0
8 -6 58 0
6 -6 107 0
10 -6 110 0
9 -6 123 0
7 -6 129 0
6 -5 -140 0
9 -5 -134 0
5 -5 -114 0
3 -5 -57 0
7 -5 -44 0
8 -5 -16 0
9 -5 -7 0
7 -5 51 0
6 -5 109 0
5 -5 125 0
2 -5 134 0
3 -4 -123 0
2 -4 -83 0
10 -4 -77 0
1 -4 -74 0
4 -4 -53 0
3 -4 -34 0
5 -4 -25 0
2 -4 -12 0
8 -4 8 0
8 -4 42 0
4 -4 52 0
5 -4 65 0
4 -4 100 0
1 -3 -110 0
6 -3 -109 0
2 -3 -102 0
6 -3 -99 0
6 -3 -90 0
10 -3 -47 0
4 -3 -26 0
2 -3 -7 0
9 -3 41 0
8 -3 138 0
4 -2 -106 0
6 -2 -104 0
6 -2 -21 0
3 -2 -12 0
2 -2 35 0
2 -2 57 0
7 -2 63 0
4 -2 67 0
4 -2 111 0
8 -2 134 0
3 -1 -54 0
4 -1 -14 0
2 -1 37 0
6 -1 75 0
9 -1 83 0
4 -1 115 0
4 -1 136 0
6 1 -137 0
7 1 -93 0
8 1 -92 0
9 1 -77 0
7 1 -35 0
4 1 -9 0
10 1 37 0
4 1 62 0
9 1 64 0
10 1 98 0
6 1 135 0
10 2 -139 0
9 2 -57 0
4 2 39 0
4 2 60 0
5 2 63 0
10 2 123 0
6 3 -117 0
6 3 -107 0
1 3 -76 0
3 3 -52 0
9 3 -15 0
4 3 15 0
10 3 30 0
2 4 -134 0
8 4 -84 0
2 4 -64 0
7 4 -43 0
6 4 -24 0
5 4 -18 0
1 4 8 0
3 4 116 0
2 4 121 0
8 4 139 0
2 5 -90 0
8 5 -72 0
2 5 -26 0
2 5 -8 0
1 5 14 0
1 5 23 0
2 5 85 0
7 5 92 0
10 5 102 0
10 5 106 0
1 5 111 0
4 5 117 0
4 6 -120 0
10 6 -108 0
9 6 -56 0
9 6 -43 0
1 6 -11 0
2 6 33 0
8 6 93 0
5 6 95 0
2 6 118 0
10 7 -130 0
3 7 -120 0
3 7 -74 0
7 7 -69 0
8 7 -55 0
6 7 -54 0
7 7 -47 0
10 7 -13 0
7 7 11 0
5 7 44 0
1 7 55 0
5 7 67 0
6 7 103 0
2 7 118 0
5 7 134 0
6 7 140 0
3 8 -60 0
2 8 -30 0
6 8 -29 0
2 8 26 0
3 8 61 0
9 8 83 0
6 8 103 0
2 8 107 0
9 8 132 0
5 9 -140 0
3 9 -65 0
1 9 -39 0
3 9 -36 0
7 9 46 0
2 9 69 0
3 9 71 0
8 9 76 0
4 9 77 0
10 9 78 0
6 9 101 0
9 10 -112 0
7 10 -103 0
6 10 -65 0
6 10 -45 0
2 10 16 0
6 10 97 0
1 10 128 0
7 11 -134 0
7 11 -57 0
5 11 65 0
3 11 75 0
9 11 104 0
7 11 125 0
8 11 126 0
1 11 128 0
8 12 -120 0
8 12 -52 0
6 12 -38 0
10 12 -13 0
7 12 53 0
10 12 79 0
2 13 -125 0
7 13 -118 0
3 13 54 0
8 13 56 0
8 13 85 0
6 13 95 0
6 13 115 0
2 13 132 0
5 14 -124 0
2 14 -94 0
1 14 -30 0
2 14 -15 0
7 14 21 0
7 14 31 0
3 14 40 0
3 14 49 0
7 14 110 0
9 15 -122 0
9 15 -118 0
2 15 -106 0
2 15 -51 0
8 15 -35 0
8 15 34 0
10 15 84 0
9 15 93 0
6 15 120 0
8 16 -111 0
5 16 -64 0
6 16 -51 0
4 16 45 0
5 16 70 0
7 16 93 0
10 16 95 0
7 16 117 0
5 16 128 0
7 16 132 0
3 16 134 0
1 17 -121 0
8 17 -117 0
7 17 -94 0
2 17 -85 0
8 17 80 0
8 17 121 0
8 17 127 0
5 18 -131 0
1 18 -129 0
10 18 -108 0
1 18 -104 0
9 18 -78 0
9 18 -21 0
3 18 74 0
1 18 113 0
7 18 132 0
10 19 -118 0
10 19 -103 0
6 19 -66 0
6 19 26 0
7 19 27 0
10 19 64 0
1 19 78 0
2 19 81 0
5 19 84 0
7 19 91 0
1 19 102 0
2 20 -119 0
2 20 -112 0
8 20 -104 0
4 20 -100 0
2 20 -99 0
6 20 -76 0
1 20 -39 0
4 20 50 0
4 20 64 0
8 20 132 0
2 20 138 0
7 21 -125 0
9 21 -107 0
1 21 -25 0
8 21 34 0
8 21 36 0
10 21 41 0
9 21 55 0
8 21 90 0
7 21 91 0
9 21 105 0
8 22 -137 0
3 22 -135 0
5 22 -128 0
6 22 -125 0
3 22 -85 0
5 22 -56 0
6 22 -52 0
7 22 -37 0
2 22 -28 0
6 22 64 0
8 22 69 0
4 22 70 0
4 22 134 0
2 23 -116 0
5 23 -111 0
9 23 -105 0
2 23 -57 0
8 23 -48 0
2 23 27 0
9 23 41 0
8 23 45 0
9 23 101 0
8 23 125 0
9 24 -108 0
6 24 -74 0
6 24 -30 0
9 24 63 0
6 24 68 0
4 24 105 0
6 25 -110 0
5 25 -83 0
2 25 -47 0
8 25 45 0
9 25 105 0
6 25 126 0
1 26 -40 0
4 26 -29 0
2 26 32 0
7 26 52 0
5 26 57 0
8 26 74 0
5 26 100 0
8 26 110 0
2 27 -114 0
6 27 -51 0
3 27 63 0
9 27 64 0
7 27 73 0
1 27 90 0
2 27 127 0
6 28 -135 0
9 28 -128 0
9 28 -79 0
4 28 -68 0
8 28 97 0
6 28 98 0
9 28 106 0
6 28 108 0
2 28 110 0
2 28 121 0
2 29 -85 0
5 29 -64 0
3 29 -35 0
9 29 56 0
4 29 59 0
8 29 132 0
9 30 -99 0
7 30 -72 0
10 30 57 0
7 30 102 0
2 30 132 0
7 30 137 0
2 31 -108 0
9 31 -83 0
8 31 -79 0
7 31 -72 0
2 31 -62 0
7 31 35 0
4 31 46 0
2 31 54 0
8 31 71 0
10 31 124 0
10 32 -76 0
7 32 -71 0
4 32 -70 0
7 32 -36 0
3 32 48 0
3 32 56 0
3 32 74 0
4 32 75 0
4 32 98 0
4 32 104 0
8 33 -133 0
6 33 -124 0
3 33 -112 0
2 33 -106 0
5 33 -92 0
2 33 -78 0
7 33 -63 0
4 33 35 0
8 33 87 0
8 33 116 0
2 34 -110 0
9 34 -95 0
7 34 -76 0
9 34 110 0
6 34 118 0
8 34 125 0
6 35 -90 0
10 35 -87 0
9 35 -83 0
5 35 -74 0
9 35 -54 0
8 35 -49 0
2 36 -95 0
3 36 -94 0
6 36 -59 0
4 36 48 0
5 36 51 0
8 36 52 0
7 36 64 0
8 36 134 0
2 37 -133 0
5 37 -107 0
5 37 -77 0
4 37 -63 0
5 37 -51 0
8 37 -41 0
5 37 40 0
3 37 41 0
3 37 90 0
4 37 104 0
1 37 105 0
4 37 106 0
3 38 -129 0
7 38 -108 0
3 38 -71 0
8 38 -56 0
5 38 87 0
8 38 111 0
8 38 120 0
3 38 122 0
3 38 123 0
7 39 -93 0
2 39 -83 0
4 39 -65 0
10 39 -57 0
6 39 74 0
7 39 79 0
5 39 84 0
4 39 85 0
4 39 107 0
3 39 108 0
5 39 110 0
7 39 129 0
7 40 -134 0
8 40 -120 0
3 40 -108 0
5 40 -89 0
4 40 -88 0
4 40 -86 0
7 40 -77 0
6 40 89 0
5 40 113 0
1 40 134 0
8 41 -111 0
1 41 -76 0
3 41 -43 0
6 41 91 0
5 41 112 0
1 42 -137 0
4 42 -132 0
7 42 -117 0
3 42 -73 0
2 42 -67 0
8 42 -43 0
6 42 57 0
2 42 101 0
4 42 113 0
3 42 115 0
5 42 126 0
7 43 -106 0
6 43 -97 0
7 43 -56 0
3 43 -44 0
3 43 51 0
4 43 62 0
10 43 69 0
4 43 84 0
8 44 -105 0
4 44 -100 0
8 44 -96 0
6 44 -95 0
9 44 -77 0
2 44 56 0
6 44 84 0
7 44 106 0
3 44 116 0
8 44 117 0
3 45 -92 0
7 45 -66 0
8 45 57 0
7 45 67 0
4 45 99 0
2 45 115 0
8 46 -127 0
2 46 -90 0
7 46 -70 0
8 46 -51 0
5 46 -50 0
9 46 68 0
4 46 76 0
2 46 77 0
5 46 82 0
10 46 83 0
4 46 91 0
6 46 110 0
4 46 113 0
4 46 131 0
10 47 -137 0
3 47 -127 0
6 47 -95 0
7 47 -86 0
7 47 -81 0
5 47 53 0
9 47 72 0
3 47 94 0
2 47 103 0
1 48 -95 0
10 48 -73 0
5 48 -71 0
7 48 -51 0
8 48 -50 0
2 48 53 0
10 48 61 0
8 48 127 0
8 48 134 0
1 49 -136 0
5 49 -125 0
6 49 -72 0
5 49 -61 0
4 49 -54 0
9 49 68 0
7 49 90 0
8 49 115 0
9 49 126 0
10 50 -126 0
4 50 -74 0
3 50 66 0
3 50 84 0
4 50 119 0
5 50 123 0
9 51 -121 0
1 51 -104 0
2 51 -101 0
4 51 -95 0
9 51 -76 0
4 52 -130 0
5 52 -77 0
9 52 59 0
4 52 69 0
9 52 79 0
6 53 -104 0
2 53 90 0
10 53 134 0
6 54 -131 0
9 54 -90 0
8 54 -89 0
6 54 57 0
4 54 64 0
4 54 65 0
2 54 87 0
7 54 96 0
3 54 104 0
7 55 -125 0
5 55 -115 0
2 55 -114 0
7 55 -105 0
9 55 -103 0
4 55 -78 0
9 55 101 0
3 56 -132 0
7 56 -124 0
8 56 59 0
3 56 107 0
8 56 125 0
1 56 131 0
2 57 -123 0
2 57 -77 0
6 58 -131 0
1 58 -128 0
5 58 -126 0
5 58 -112 0
7 58 -87 0
6 58 93 0
4 58 110 0
2 58 115 0
5 59 -116 0
2 59 -104 0
8 59 -90 0
8 59 -80 0
5 59 -66 0
8 59 115 0
5 60 -132 0
7 60 -99 0
5 60 -89 0
10 60 -86 0
8 60 -83 0
2 60 95 0
8 60 101 0
2 60 127 0
1 60 137 0
10 61 -138 0
8 61 -84 0
8 61 -82 0
3 61 -66 0
6 61 97 0
8 61 98 0
4 61 99 0
8 61 112 0
4 61 117 0
5 61 124 0
3 62 -130 0
8 62 -121 0
1 62 -118 0
7 62 68 0
2 62 72 0
3 62 86 0
2 62 108 0
2 62 126 0
9 63 -123 0
9 63 -74 0
6 63 94 0
7 63 95 0
4 63 123 0
3 63 133 0
3 64 94 0
4 64 97 0
10 64 101 0
4 65 -113 0
2 65 66 0
1 65 82 0
4 65 95 0
2 66 81 0
8 66 90 0
2 66 130 0
4 67 86 0
5 67 96 0
9 67 118 0
7 67 130 0
2 67 138 0
3 68 -87 0
2 68 126 0
4 68 128 0
10 68 129 0
2 69 -105 0
1 69 -95 0
1 69 -91 0
4 69 95 0
2 69 110 0
3 69 127 0
3 69 129 0
10 70 -139 0
8 70 -123 0
10 70 -110 0
4 70 -83 0
1 70 113 0
2 70 115 0
7 70 134 0
1 71 -126 0
5 71 -99 0
8 71 -96 0
2 71 -86 0
9 71 72 0
9 71 81 0
9 71 102 0
10 71 124 0
4 72 -137 0
4 72 -93 0
9 72 -87 0
10 72 76 0
5 72 89 0
2 72 105 0
2 73 -93 0
8 73 -80 0
2 73 104 0
3 74 129 0
9 75 -130 0
2 75 -96 0
6 75 102 0
10 75 113 0
4 76 -85 0
8 76 -80 0
10 76 79 0
3 76 81 0
7 77 -133 0
4 77 -113 0
3 77 -102 0
9 77 121 0
10 77 129 0
3 78 -112 0
4 78 115 0
8 79 -101 0
4 79 98 0
3 79 103 0
7 79 109 0
3 79 124 0
3 79 130 0
10 80 -105 0
6 80 -81 0
2 80 125 0
10 81 -103 0
1 81 82 0
3 81 103 0
2 81 133 0
9 82 -96 0
4 82 -84 0
4 82 138 0
7 82 139 0
5 83 -139 0
8 83 -123 0
7 83 -114 0
9 83 -112 0
6 83 -95 0
7 83 -85 0
1 83 101 0
4 83 122 0
9 83 126 0
3 83 134 0
2 84 -92 0
9 84 135 0
6 85 -117 0
6 85 89 0
6 85 95 0
8 86 -117 0
8 86 -101 0
4 86 97 0
1 87 -106 0
9 87 115 0
3 88 -121 0
6 88 -118 0
10 88 91 0
3 89 -139 0
6 89 -101 0
3 89 99 0
4 89 115 0
5 89 138 0
6 90 -127 0
7 90 -124 0
2 90 -115 0
1 90 94 0
5 90 98 0
8 90 120 0
9 90 135 0
1 91 -121 0
5 91 -98 0
10 91 105 0
4 91 112 0
4 91 137 0
3 92 -110 0
5 92 110 0
2 93 -129 0
7 93 -112 0
10 93 -110 0
8 93 -106 0
6 93 96 0
7 93 133 0
1 94 -111 0
6 94 -102 0
7 95 -97 0
4 96 115 0
2 97 -112 0
6 97 -110 0
6 97 110 0
7 98 -104 0
8 98 100 0
9 98 104 0
2 98 107 0
4 98 121 0
6 99 -102 0
3 100 -122 0
5 100 -107 0
10 100 108 0
10 102 -123 0
4 102 -109 0
1 102 -106 0
4 102 119 0
4 103 111 0
4 103 112 0
7 103 119 0
6 104 -132 0
8 104 -117 0
9 104 112 0
3 105 -110 0
7 105 113 0
6 105 128 0
8 105 136 0
5 106 107 0
7 106 120 0
4 107 -131 0
1 107 -110 0
10 107 135 0
5 108 -135 0
7 108 118 0
6 109 122 0
3 109 140 0
5 110 -130 0
5 110 -111 0
4 110 139 0
8 111 -132 0
10 112 130 0
6 113 -127 0
3 113 134 0
10 114 -122 0
6 114 123 0
6 114 124 0
10 117 -136 0
9 117 123 0
9 118 132 0
4 119 -138 0
7 119 -121 0
4 122 136 0
1 122 137 0
5 123 132 0
6 124 -134 0
8 124 -133 0
2 124 -131 0
4 125 133 0
3 126 128 0
8 127 -131 0
7 128 138 0
3 128 139 0
7 129 135 0
3 133 -139 0
9 134 -139 0
